SumColouring/JavaBacktracker/RandomInstances/22_0.65_2.col
c File: instances/22_0.65_2.col
c
c Description: Random graph of size 22 vertices and P(0.65) of edges between any two vertices.
p col 22 231
e 1 8
e 1 9
e 1 10
e 1 12
e 1 13
e 1 16
e 1 17
e 1 18
e 1 20
e 1 21
e 1 22
e 2 3
e 2 4
e 2 5
e 2 6
e 2 8
e 2 9
e 2 10
e 2 12
e 2 13
e 2 14
e 2 16
e 2 17
e 2 18
e 2 21
e 2 22
e 3 4
e 3 6
e 3 7
e 3 11
e 3 13
e 3 14
e 3 15
e 3 16
e 3 18
e 3 19
e 3 20
e 3 21
e 4 6
e 4 7
e 4 8
e 4 11
e 4 12
e 4 14
e 4 15
e 4 16
e 4 18
e 4 19
e 4 20
e 5 6
e 5 7
e 5 8
e 5 9
e 5 10
e 5 11
e 5 12
e 5 13
e 5 14
e 5 15
e 5 16
e 5 17
e 5 19
e 5 21
e 5 22
e 6 7
e 6 8
e 6 9
e 6 10
e 6 13
e 6 14
e 6 15
e 6 18
e 6 19
e 6 22
e 7 10
e 7 13
e 7 15
e 7 17
e 7 18
e 7 20
e 8 9
e 8 10
e 8 14
e 8 15
e 8 16
e 8 18
e 8 19
e 8 20
e 8 21
e 8 22
e 9 12
e 9 13
e 9 14
e 9 15
e 9 16
e 9 21
e 9 22
e 10 13
e 10 16
e 10 17
e 10 20
e 10 21
e 10 22
e 11 14
e 11 15
e 11 16
e 11 17
e 11 19
e 11 20
e 11 22
e 12 13
e 12 14
e 12 16
e 12 17
e 12 18
e 12 20
e 12 21
e 12 22
e 13 14
e 13 15
e 13 18
e 13 19
e 13 20
e 13 22
e 14 15
e 14 16
e 14 17
e 14 18
e 14 19
e 14 20
e 14 22
e 15 16
e 15 17
e 15 18
e 15 20
e 15 22
e 16 17
e 16 18
e 16 20
e 17 18
e 17 19
e 17 20
e 17 21
e 17 22
e 18 19
e 18 20
e 18 21
e 18 22
e 20 21
e 20 22
e 21 22